c CNF generator v0.9
p cnf 50 50
41 -2 21 0
6 -11 -31 0
-29 -23 14 0
-20 32 -5 0
-29 -9 -44 0
13 -24 13 0
48 -31 -31 0
9 -7 -17 0
-27 -38 -25 0
4 -30 48 0
6 29 40 0
-2 -10 19 0
-35 21 5 0
-42 -11 50 0
47 -29 -1 0
39 33 11 0
20 -12 43 0
43 50 34 0
24 33 19 0
-43 19 35 0
48 28 -27 0
-2 47 9 0
-41 -11 9 0
13 50 -14 0
-32 -4 22 0
17 -6 22 0
-38 -44 1 0
-42 26 -15 0
46 29 -49 0
-20 -7 20 0
25 -41 -33 0
-3 -10 -50 0
-12 2 32 0
9 -19 -45 0
-30 17 42 0
9 31 -25 0
11 33 -20 0
22 39 -12 0
-39 50 45 0
28 -4 -24 0
-37 -21 48 0
45 10 25 0
1 -47 27 0
-24 -48 7 0
47 -25 11 0
39 -37 47 0
-46 -23 14 0
33 -37 49 0
-24 -48 -22 0
2 39 -20 0
